sat
(
  (define-fun C5_VM2 () Int
    0)
  (define-fun C4_VM5 () Int
    0)
  (define-fun StorageProv3 () Int
    2000)
  (define-fun C3_VM4 () Int
    0)
  (define-fun ProcProv2 () Int
    65)
  (define-fun C1_VM3 () Int
    0)
  (define-fun C4_VM3 () Int
    0)
  (define-fun C3_VM3 () Int
    0)
  (define-fun VM3Type () Int
    26)
  (define-fun C4_VM2 () Int
    0)
  (define-fun C5_VM1 () Int
    0)
  (define-fun C3_VM2 () Int
    0)
  (define-fun ProcProv3 () Int
    4)
  (define-fun C1_VM6 () Int
    0)
  (define-fun PriceProv6 () Int
    1288)
  (define-fun C1_VM4 () Int
    0)
  (define-fun VM6Type () Int
    22)
  (define-fun C2_VM5 () Int
    0)
  (define-fun C2_VM4 () Int
    1)
  (define-fun ProcProv4 () Int
    4)
  (define-fun VM5Type () Int
    21)
  (define-fun C1_VM2 () Int
    0)
  (define-fun PriceProv4 () Int
    252)
  (define-fun StorageProv4 () Int
    2000)
  (define-fun PriceProv2 () Int
    0)
  (define-fun StorageProv6 () Int
    2000)
  (define-fun ProcProv5 () Int
    8)
  (define-fun C5_VM6 () Int
    0)
  (define-fun PriceProv3 () Int
    252)
  (define-fun PriceProv1 () Int
    252)
  (define-fun C2_VM1 () Int
    0)
  (define-fun VM2Type () Int
    0)
  (define-fun MemProv1 () Int
    7500)
  (define-fun ProcProv1 () Int
    4)
  (define-fun MemProv6 () Int
    68400)
  (define-fun PriceProv5 () Int
    632)
  (define-fun C2_VM6 () Int
    0)
  (define-fun ProcProv6 () Int
    8)
  (define-fun MemProv5 () Int
    7000)
  (define-fun MemProv2 () Int
    1699)
  (define-fun VM4Type () Int
    26)
  (define-fun C1_VM5 () Int
    0)
  (define-fun StorageProv2 () Int
    1999)
  (define-fun C5_VM4 () Int
    1)
  (define-fun StorageProv5 () Int
    4000)
  (define-fun C2_VM2 () Int
    0)
  (define-fun C3_VM1 () Int
    0)
  (define-fun C5_VM5 () Int
    1)
  (define-fun C3_VM5 () Int
    1)
  (define-fun MemProv4 () Int
    7500)
  (define-fun MemProv3 () Int
    7500)
  (define-fun C3_VM6 () Int
    0)
  (define-fun C5_VM3 () Int
    1)
  (define-fun C4_VM1 () Int
    0)
  (define-fun C2_VM3 () Int
    1)
  (define-fun StorageProv1 () Int
    2000)
  (define-fun C4_VM4 () Int
    0)
  (define-fun VM1Type () Int
    26)
  (define-fun C4_VM6 () Int
    1)
  (define-fun C1_VM1 () Int
    1)
)
(objectives
 ( 13)
 ((+ 0 PriceProv1 PriceProv2 PriceProv3 PriceProv4 PriceProv5 PriceProv6) 2676)
)
(:added-eqs                   92197
 :arith-eq-adapter            12363
 :arith-bound-propagations-lp 396
 :arith-conflicts             13
 :arith-diseq                 58193
 :arith-fixed-eqs             4470
 :arith-lower                 56977
 :arith-make-feasible         12673
 :arith-max-columns           147
 :arith-max-rows              20
 :arith-upper                 86003
 :binary-propagations         415167
 :conflicts                   1921
 :decisions                   50314
 :del-clause                  12390
 :final-checks                26
 :max-memory                  44.24
 :maxsat-cores                2
 :memory                      44.04
 :minimized-lits              20887
 :mk-bool-var                 26488
 :mk-clause                   13943
 :mk-clause-binary            4372
 :num-allocs                  27018442
 :num-checks                  28
 :pb-conflicts                1528
 :pb-predicates               474
 :pb-propagations             1503
 :pb-resolves                 1527
 :propagations                569650
 :restarts                    15
 :rlimit-count                4056322
 :solve-eqs-elim-vars         1
 :solve-eqs-steps             10
 :time                        0.23
 :total-time                  0.23)
